c FILE /home/rafael/Documents/HappySet/MIHS/inputs/happygen/output/graph_d_regular_k2_p0.1_v100_20241127_083954.txt
c SOURCE This is a d-regular graph formed for the happy graph colouring problem.
c DESCRIPTION It was generated using the problem generator of Rhyd Lewis
c
c GRAPH STATS
c Seed                             = 1788202641
c Number of Nodes                  = 100
c Number of colours k              = 2
c Number of pre-assignments        = 10
c Degree of all vertices           = 6
c Density                          = 0.0606061
c 
c The degrees of nodes 1 to 100, respectively, are as follows 
c [6, 6, 6, 6, 6, 6, 6, 6, 6, 6, 6, 6, 6, 6, 6, 6, 6, 6, 6, 6, 6, 6, 6, 6, 6, 6, 
c  6, 6, 6, 6, 6, 6, 6, 6, 6, 6, 6, 6, 6, 6, 6, 6, 6, 6, 6, 6, 6, 6, 6, 6, 6, 
c  6, 6, 6, 6, 6, 6, 6, 6, 6, 6, 6, 6, 6, 6, 6, 6, 6, 6, 6, 6, 6, 6, 6, 6, 6, 
c  6, 6, 6, 6, 6, 6, 6, 6, 6, 6, 6, 6, 6, 6, 6, 6, 6, 6, 6, 6, 6, 6, 6, 6] 
c  
p edge 100 300 2
e 1 14
e 1 17
e 1 28
e 1 60
e 1 62
e 1 90
e 2 5
e 2 6
e 2 18
e 2 26
e 2 60
e 2 69
e 3 14
e 3 59
e 3 67
e 3 77
e 3 79
e 3 83
e 4 36
e 4 40
e 4 47
e 4 66
e 4 68
e 4 79
e 5 21
e 5 25
e 5 48
e 5 51
e 5 85
e 6 14
e 6 61
e 6 70
e 6 74
e 6 99
e 7 17
e 7 22
e 7 31
e 7 54
e 7 61
e 7 77
e 8 23
e 8 34
e 8 59
e 8 69
e 8 83
e 8 92
e 9 12
e 9 38
e 9 73
e 9 91
e 9 93
e 9 95
e 10 63
e 10 68
e 10 77
e 10 83
e 10 86
e 10 100
e 11 26
e 11 37
e 11 53
e 11 54
e 11 57
e 11 100
e 12 26
e 12 43
e 12 47
e 12 66
e 12 83
e 13 23
e 13 25
e 13 34
e 13 35
e 13 88
e 13 89
e 14 27
e 14 35
e 14 65
e 15 24
e 15 27
e 15 58
e 15 66
e 15 86
e 15 94
e 16 37
e 16 55
e 16 61
e 16 71
e 16 96
e 16 99
e 17 20
e 17 28
e 17 58
e 17 89
e 18 23
e 18 53
e 18 56
e 18 59
e 18 88
e 19 37
e 19 41
e 19 48
e 19 54
e 19 69
e 19 78
e 20 29
e 20 70
e 20 75
e 20 98
e 20 100
e 21 40
e 21 42
e 21 45
e 21 64
e 21 74
e 22 75
e 22 78
e 22 83
e 22 89
e 22 93
e 23 26
e 23 39
e 23 99
e 24 46
e 24 49
e 24 71
e 24 89
e 24 97
e 25 29
e 25 36
e 25 62
e 25 65
e 26 31
e 26 50
e 27 50
e 27 51
e 27 60
e 27 64
e 28 47
e 28 50
e 28 58
e 28 95
e 29 48
e 29 63
e 29 91
e 29 92
e 30 49
e 30 52
e 30 69
e 30 71
e 30 74
e 30 97
e 31 44
e 31 68
e 31 73
e 31 88
e 32 47
e 32 58
e 32 62
e 32 80
e 32 89
e 32 94
e 33 44
e 33 45
e 33 56
e 33 67
e 33 76
e 33 95
e 34 57
e 34 83
e 34 84
e 34 92
e 35 42
e 35 76
e 35 97
e 35 98
e 36 43
e 36 65
e 36 80
e 36 97
e 37 76
e 37 86
e 37 91
e 38 63
e 38 84
e 38 88
e 38 90
e 38 95
e 39 56
e 39 63
e 39 66
e 39 72
e 39 74
e 40 43
e 40 60
e 40 73
e 40 81
e 41 49
e 41 64
e 41 70
e 41 85
e 41 93
e 42 64
e 42 76
e 42 81
e 42 87
e 43 68
e 43 72
e 43 87
e 44 46
e 44 58
e 44 62
e 44 93
e 45 53
e 45 59
e 45 75
e 45 79
e 46 48
e 46 60
e 46 85
e 46 96
e 47 84
e 47 91
e 48 52
e 48 67
e 49 56
e 49 78
e 49 94
e 50 62
e 50 79
e 50 100
e 51 55
e 51 65
e 51 96
e 51 100
e 52 73
e 52 77
e 52 82
e 52 99
e 53 60
e 53 80
e 53 94
e 54 94
e 54 98
e 54 100
e 55 71
e 55 72
e 55 87
e 55 91
e 56 71
e 56 92
e 57 68
e 57 81
e 57 92
e 57 98
e 58 81
e 59 73
e 59 91
e 61 77
e 61 84
e 61 90
e 62 75
e 63 75
e 63 89
e 64 78
e 64 85
e 65 80
e 65 95
e 66 72
e 66 90
e 67 76
e 67 77
e 67 87
e 68 87
e 69 79
e 69 93
e 70 72
e 70 78
e 70 99
e 71 76
e 72 88
e 73 82
e 74 75
e 74 80
e 78 88
e 79 84
e 80 81
e 81 85
e 82 86
e 82 87
e 82 96
e 82 99
e 84 98
e 85 86
e 86 98
e 90 93
e 90 97
e 92 95
e 94 96
e 96 97
n 5 1
n 17 2
n 28 2
n 29 2
n 38 2
n 41 2
n 52 2
n 79 1
n 86 1
n 87 1
